\ LP format - for model browsing. Use MPS format to capture full model detail.
Minimize
  C95(1)
Subject To
 c0: B0(12) = 1
 c1: B1(12) = 1
 c2: B2(12) = 1
 c3: B3(14) = 1
 c4: B4(7) = 1
 c5: B5(12) = 1
 c6: B6(14) = 1
 c7: B7(12) = 1
 c8: B8(8) = 1
 c9: B9(11) = 1
 c10: B10(13) = 1
 c11: B11(9) = 1
 c12: B12(13) = 1
 c13: B13(13) = 1
 c14: B14(14) = 1
 c15: B15(13) = 1
 c16: B16(13) = 1
 c17: B17(13) = 1
 c18: B18(14) = 1
 c19: B19(12) = 1
 c20: B20(12) = 1
 c21: B21(12) = 1
 c22: B22(12) = 1
 c23: B23(11) = 1
 c24: - 4.32e+06 B0(12) + C71(12) <= 0
 c25: - 4.32e+06 B1(12) + C72(13) <= 0
 c26: - 4.32e+06 B2(12) + C73(13) <= 0
 c27: - 4.32e+06 B3(14) + C74(15) <= 0
 c28: - 4.32e+06 B4(7) + C75(8) <= 0
 c29: - 4.32e+06 B5(12) + C76(12) <= 0
 c30: - 4.32e+06 B6(14) + C77(15) <= 0
 c31: - 4.32e+06 B7(12) + C78(13) <= 0
 c32: - 4.32e+06 B8(8) + C79(9) <= 0
 c33: - 4.32e+06 B9(11) + C80(12) <= 0
 c34: - 4.32e+06 B10(13) + C81(12) <= 0
 c35: - 4.32e+06 B11(9) + C82(9) <= 0
 c36: - 4.32e+06 B12(13) + C83(13) <= 0
 c37: - 4.32e+06 B13(13) + C84(13) <= 0
 c38: - 4.32e+06 B14(14) + C85(14) <= 0
 c39: - 4.32e+06 B15(13) + C86(12) <= 0
 c40: - 4.32e+06 B16(13) + C87(13) <= 0
 c41: - 4.32e+06 B17(13) + C88(13) <= 0
 c42: - 4.32e+06 B18(14) + C89(14) <= 0
 c43: - 4.32e+06 B19(12) + C90(12) <= 0
 c44: - 4.32e+06 B20(12) + C91(13) <= 0
 c45: - 4.32e+06 B21(12) + C92(13) <= 0
 c46: - 4.32e+06 B22(12) + C93(13) <= 0
 c47: - 4.32e+06 B23(11) + C94(12) <= 0
 c48: - 1440 B0(12) - C71(12) + C72(13) >= 0
 c49: - 2880 B1(12) - C72(13) + C73(13) >= 0
 c50: - 2880 B2(12) - C73(13) + C74(15) >= 0
 c51: - 1440 B3(14) - C74(15) + C75(8) >= 0
 c52: - 1440 B5(12) - C76(12) + C77(15) >= 0
 c53: - 1440 B6(14) - C77(15) + C78(13) >= 0
 c54: - 1440 B7(12) - C78(13) + C79(9) >= 0
 c55: - 1440 B8(8) - C79(9) + C80(12) >= 0
 c56: - 1440 B10(13) - C81(12) + C82(9) >= 0
 c57: - 2880 B11(9) - C82(9) + C83(13) >= 0
 c58: - 4320 B12(13) - C83(13) + C84(13) >= 0
 c59: - 1440 B13(13) - C84(13) + C85(14) >= 0
 c60: - 1440 B15(13) - C86(12) + C87(13) >= 0
 c61: - 2880 B16(13) - C87(13) + C88(13) >= 0
 c62: - 2880 B17(13) - C88(13) + C89(14) >= 0
 c63: - 2880 B19(12) - C90(12) + C91(13) >= 0
 c64: - 1440 B20(12) - C91(13) + C92(13) >= 0
 c65: - 1440 B21(12) - C92(13) + C93(13) >= 0
 c66: - 1440 B22(12) - C93(13) + C94(12) >= 0
 c67: - 4.32e+06 B0(12) - 4.32e+06 B5(12) - 4.32e+06 B24(2) + C71(12)
   - C76(12) >= -1.295856e+07
 c68: - 4.32e+06 B0(12) - 4.32e+06 B5(12) + 4.32e+06 B24(2) - C71(12)
   + C76(12) >= -8.63856e+06
 c69: - 4.32e+06 B0(12) - 4.32e+06 B10(13) - 4.32e+06 B25(2) + C71(12)
   - C81(12) >= -1.295856e+07
 c70: - 4.32e+06 B0(12) - 4.32e+06 B10(13) + 4.32e+06 B25(2) - C71(12)
   + C81(12) >= -8.63856e+06
 c71: - 4.32e+06 B0(12) - 4.32e+06 B15(13) - 4.32e+06 B26(2) + C71(12)
   - C86(12) >= -1.295856e+07
 c72: - 4.32e+06 B0(12) - 4.32e+06 B15(13) + 4.32e+06 B26(2) - C71(12)
   + C86(12) >= -8.63856e+06
 c73: - 4.32e+06 B0(12) - 4.32e+06 B19(12) - 4.32e+06 B27(2) + C71(12)
   - C90(12) >= -1.295712e+07
 c74: - 4.32e+06 B0(12) - 4.32e+06 B19(12) + 4.32e+06 B27(2) - C71(12)
   + C90(12) >= -8.63856e+06
 c75: - 4.32e+06 B1(12) - 4.32e+06 B9(11) - 4.32e+06 B28(2) + C72(13)
   - C80(12) >= -1.295856e+07
 c76: - 4.32e+06 B1(12) - 4.32e+06 B9(11) + 4.32e+06 B28(2) - C72(13)
   + C80(12) >= -8.63712e+06
 c77: - 4.32e+06 B1(12) - 4.32e+06 B12(13) - 4.32e+06 B29(2) + C72(13)
   - C83(13) >= -1.295568e+07
 c78: - 4.32e+06 B1(12) - 4.32e+06 B12(13) + 4.32e+06 B29(2) - C72(13)
   + C83(13) >= -8.63712e+06
 c79: - 4.32e+06 B1(12) - 4.32e+06 B17(13) - 4.32e+06 B30(2) + C72(13)
   - C88(13) >= -1.295712e+07
 c80: - 4.32e+06 B1(12) - 4.32e+06 B17(13) + 4.32e+06 B30(2) - C72(13)
   + C88(13) >= -8.63712e+06
 c81: - 4.32e+06 B1(12) - 4.32e+06 B22(12) - 4.32e+06 B31(2) + C72(13)
   - C93(13) >= -1.295856e+07
 c82: - 4.32e+06 B1(12) - 4.32e+06 B22(12) + 4.32e+06 B31(2) - C72(13)
   + C93(13) >= -8.63712e+06
 c83: - 4.32e+06 B2(12) - 4.32e+06 B7(12) - 4.32e+06 B32(2) + C73(13)
   - C78(13) >= -1.295856e+07
 c84: - 4.32e+06 B2(12) - 4.32e+06 B7(12) + 4.32e+06 B32(2) - C73(13)
   + C78(13) >= -8.63712e+06
 c85: - 4.32e+06 B2(12) - 4.32e+06 B13(13) - 4.32e+06 B33(2) + C73(13)
   - C84(13) >= -1.295856e+07
 c86: - 4.32e+06 B2(12) - 4.32e+06 B13(13) + 4.32e+06 B33(2) - C73(13)
   + C84(13) >= -8.63712e+06
 c87: - 4.32e+06 B2(12) - 4.32e+06 B16(13) - 4.32e+06 B34(2) + C73(13)
   - C87(13) >= -1.295712e+07
 c88: - 4.32e+06 B2(12) - 4.32e+06 B16(13) + 4.32e+06 B34(2) - C73(13)
   + C87(13) >= -8.63712e+06
 c89: - 4.32e+06 B2(12) - 4.32e+06 B20(12) - 4.32e+06 B35(2) + C73(13)
   - C91(13) >= -1.295856e+07
 c90: - 4.32e+06 B2(12) - 4.32e+06 B20(12) + 4.32e+06 B35(2) - C73(13)
   + C91(13) >= -8.63712e+06
 c91: - 4.32e+06 B3(14) - 4.32e+06 B6(14) - 4.32e+06 B36(2) + C74(15)
   - C77(15) >= -1.295856e+07
 c92: - 4.32e+06 B3(14) - 4.32e+06 B6(14) + 4.32e+06 B36(2) - C74(15)
   + C77(15) >= -8.63856e+06
 c93: - 4.32e+06 B3(14) - 4.32e+06 B14(14) - 4.32e+06 B37(2) + C74(15)
   - C85(14) >= -1.295856e+07
 c94: - 4.32e+06 B3(14) - 4.32e+06 B14(14) + 4.32e+06 B37(2) - C74(15)
   + C85(14) >= -8.63856e+06
 c95: - 4.32e+06 B3(14) - 4.32e+06 B18(14) - 4.32e+06 B38(2) + C74(15)
   - C89(14) >= -1.295712e+07
 c96: - 4.32e+06 B3(14) - 4.32e+06 B18(14) + 4.32e+06 B38(2) - C74(15)
   + C89(14) >= -8.63856e+06
 c97: - 4.32e+06 B3(14) - 4.32e+06 B21(12) - 4.32e+06 B39(2) + C74(15)
   - C92(13) >= -1.295856e+07
 c98: - 4.32e+06 B3(14) - 4.32e+06 B21(12) + 4.32e+06 B39(2) - C74(15)
   + C92(13) >= -8.63856e+06
 c99: - 4.32e+06 B3(14) - 4.32e+06 B23(11) - 4.32e+06 B40(2) + C74(15)
   - C94(12) >= -1.295856e+07
 c100: - 4.32e+06 B3(14) - 4.32e+06 B23(11) + 4.32e+06 B40(2) - C74(15)
   + C94(12) >= -8.63856e+06
 c101: - 4.32e+06 B4(7) - 4.32e+06 B8(8) - 4.32e+06 B41(2) + C75(8)
   - C79(9) >= -1.295856e+07
 c102: - 4.32e+06 B4(7) - 4.32e+06 B8(8) + 4.32e+06 B41(2) - C75(8)
   + C79(9) >= -8.63856e+06
 c103: - 4.32e+06 B4(7) - 4.32e+06 B11(9) - 4.32e+06 B42(2) + C75(8)
   - C82(9) >= -1.295712e+07
 c104: - 4.32e+06 B4(7) - 4.32e+06 B11(9) + 4.32e+06 B42(2) - C75(8)
   + C82(9) >= -8.63856e+06
 c105: - 4.32e+06 B5(12) - 4.32e+06 B10(13) - 4.32e+06 B43(2) + C76(12)
   - C81(12) >= -1.295856e+07
 c106: - 4.32e+06 B5(12) - 4.32e+06 B10(13) + 4.32e+06 B43(2) - C76(12)
   + C81(12) >= -8.63856e+06
 c107: - 4.32e+06 B5(12) - 4.32e+06 B15(13) - 4.32e+06 B44(2) + C76(12)
   - C86(12) >= -1.295856e+07
 c108: - 4.32e+06 B5(12) - 4.32e+06 B15(13) + 4.32e+06 B44(2) - C76(12)
   + C86(12) >= -8.63856e+06
 c109: - 4.32e+06 B5(12) - 4.32e+06 B19(12) - 4.32e+06 B45(2) + C76(12)
   - C90(12) >= -1.295712e+07
 c110: - 4.32e+06 B5(12) - 4.32e+06 B19(12) + 4.32e+06 B45(2) - C76(12)
   + C90(12) >= -8.63856e+06
 c111: - 4.32e+06 B6(14) - 4.32e+06 B14(14) - 4.32e+06 B46(2) + C77(15)
   - C85(14) >= -1.295856e+07
 c112: - 4.32e+06 B6(14) - 4.32e+06 B14(14) + 4.32e+06 B46(2) - C77(15)
   + C85(14) >= -8.63856e+06
 c113: - 4.32e+06 B6(14) - 4.32e+06 B18(14) - 4.32e+06 B47(2) + C77(15)
   - C89(14) >= -1.295712e+07
 c114: - 4.32e+06 B6(14) - 4.32e+06 B18(14) + 4.32e+06 B47(2) - C77(15)
   + C89(14) >= -8.63856e+06
 c115: - 4.32e+06 B6(14) - 4.32e+06 B21(12) - 4.32e+06 B48(2) + C77(15)
   - C92(13) >= -1.295856e+07
 c116: - 4.32e+06 B6(14) - 4.32e+06 B21(12) + 4.32e+06 B48(2) - C77(15)
   + C92(13) >= -8.63856e+06
 c117: - 4.32e+06 B6(14) - 4.32e+06 B23(11) - 4.32e+06 B49(2) + C77(15)
   - C94(12) >= -1.295856e+07
 c118: - 4.32e+06 B6(14) - 4.32e+06 B23(11) + 4.32e+06 B49(2) - C77(15)
   + C94(12) >= -8.63856e+06
 c119: - 4.32e+06 B7(12) - 4.32e+06 B13(13) - 4.32e+06 B50(2) + C78(13)
   - C84(13) >= -1.295856e+07
 c120: - 4.32e+06 B7(12) - 4.32e+06 B13(13) + 4.32e+06 B50(2) - C78(13)
   + C84(13) >= -8.63856e+06
 c121: - 4.32e+06 B7(12) - 4.32e+06 B16(13) - 4.32e+06 B51(2) + C78(13)
   - C87(13) >= -1.295712e+07
 c122: - 4.32e+06 B7(12) - 4.32e+06 B16(13) + 4.32e+06 B51(2) - C78(13)
   + C87(13) >= -8.63856e+06
 c123: - 4.32e+06 B7(12) - 4.32e+06 B20(12) - 4.32e+06 B52(2) + C78(13)
   - C91(13) >= -1.295856e+07
 c124: - 4.32e+06 B7(12) - 4.32e+06 B20(12) + 4.32e+06 B52(2) - C78(13)
   + C91(13) >= -8.63856e+06
 c125: - 4.32e+06 B8(8) - 4.32e+06 B11(9) - 4.32e+06 B53(2) + C79(9)
   - C82(9) >= -1.295712e+07
 c126: - 4.32e+06 B8(8) - 4.32e+06 B11(9) + 4.32e+06 B53(2) - C79(9)
   + C82(9) >= -8.63856e+06
 c127: - 4.32e+06 B9(11) - 4.32e+06 B12(13) - 4.32e+06 B54(2) + C80(12)
   - C83(13) >= -1.295568e+07
 c128: - 4.32e+06 B9(11) - 4.32e+06 B12(13) + 4.32e+06 B54(2) - C80(12)
   + C83(13) >= -8.63856e+06
 c129: - 4.32e+06 B9(11) - 4.32e+06 B17(13) - 4.32e+06 B55(2) + C80(12)
   - C88(13) >= -1.295712e+07
 c130: - 4.32e+06 B9(11) - 4.32e+06 B17(13) + 4.32e+06 B55(2) - C80(12)
   + C88(13) >= -8.63856e+06
 c131: - 4.32e+06 B9(11) - 4.32e+06 B22(12) - 4.32e+06 B56(2) + C80(12)
   - C93(13) >= -1.295856e+07
 c132: - 4.32e+06 B9(11) - 4.32e+06 B22(12) + 4.32e+06 B56(2) - C80(12)
   + C93(13) >= -8.63856e+06
 c133: - 4.32e+06 B10(13) - 4.32e+06 B15(13) - 4.32e+06 B57(2) + C81(12)
   - C86(12) >= -1.295856e+07
 c134: - 4.32e+06 B10(13) - 4.32e+06 B15(13) + 4.32e+06 B57(2) - C81(12)
   + C86(12) >= -8.63856e+06
 c135: - 4.32e+06 B10(13) - 4.32e+06 B19(12) - 4.32e+06 B58(2) + C81(12)
   - C90(12) >= -1.295712e+07
 c136: - 4.32e+06 B10(13) - 4.32e+06 B19(12) + 4.32e+06 B58(2) - C81(12)
   + C90(12) >= -8.63856e+06
 c137: - 4.32e+06 B12(13) - 4.32e+06 B17(13) - 4.32e+06 B59(2) + C83(13)
   - C88(13) >= -1.295712e+07
 c138: - 4.32e+06 B12(13) - 4.32e+06 B17(13) + 4.32e+06 B59(2) - C83(13)
   + C88(13) >= -8.63568e+06
 c139: - 4.32e+06 B12(13) - 4.32e+06 B22(12) - 4.32e+06 B60(2) + C83(13)
   - C93(13) >= -1.295856e+07
 c140: - 4.32e+06 B12(13) - 4.32e+06 B22(12) + 4.32e+06 B60(2) - C83(13)
   + C93(13) >= -8.63568e+06
 c141: - 4.32e+06 B13(13) - 4.32e+06 B16(13) - 4.32e+06 B61(2) + C84(13)
   - C87(13) >= -1.295712e+07
 c142: - 4.32e+06 B13(13) - 4.32e+06 B16(13) + 4.32e+06 B61(2) - C84(13)
   + C87(13) >= -8.63856e+06
 c143: - 4.32e+06 B13(13) - 4.32e+06 B20(12) - 4.32e+06 B62(2) + C84(13)
   - C91(13) >= -1.295856e+07
 c144: - 4.32e+06 B13(13) - 4.32e+06 B20(12) + 4.32e+06 B62(2) - C84(13)
   + C91(13) >= -8.63856e+06
 c145: - 4.32e+06 B14(14) - 4.32e+06 B18(14) - 4.32e+06 B63(2) + C85(14)
   - C89(14) >= -1.295712e+07
 c146: - 4.32e+06 B14(14) - 4.32e+06 B18(14) + 4.32e+06 B63(2) - C85(14)
   + C89(14) >= -8.63856e+06
 c147: - 4.32e+06 B14(14) - 4.32e+06 B21(12) - 4.32e+06 B64(2) + C85(14)
   - C92(13) >= -1.295856e+07
 c148: - 4.32e+06 B14(14) - 4.32e+06 B21(12) + 4.32e+06 B64(2) - C85(14)
   + C92(13) >= -8.63856e+06
 c149: - 4.32e+06 B14(14) - 4.32e+06 B23(11) - 4.32e+06 B65(2) + C85(14)
   - C94(12) >= -1.295856e+07
 c150: - 4.32e+06 B14(14) - 4.32e+06 B23(11) + 4.32e+06 B65(2) - C85(14)
   + C94(12) >= -8.63856e+06
 c151: - 4.32e+06 B15(13) - 4.32e+06 B19(12) - 4.32e+06 B66(2) + C86(12)
   - C90(12) >= -1.295712e+07
 c152: - 4.32e+06 B15(13) - 4.32e+06 B19(12) + 4.32e+06 B66(2) - C86(12)
   + C90(12) >= -8.63856e+06
 c153: - 4.32e+06 B16(13) - 4.32e+06 B20(12) - 4.32e+06 B67(2) + C87(13)
   - C91(13) >= -1.295856e+07
 c154: - 4.32e+06 B16(13) - 4.32e+06 B20(12) + 4.32e+06 B67(2) - C87(13)
   + C91(13) >= -8.63712e+06
 c155: - 4.32e+06 B17(13) - 4.32e+06 B22(12) - 4.32e+06 B68(2) + C88(13)
   - C93(13) >= -1.295856e+07
 c156: - 4.32e+06 B17(13) - 4.32e+06 B22(12) + 4.32e+06 B68(2) - C88(13)
   + C93(13) >= -8.63712e+06
 c157: - 4.32e+06 B18(14) - 4.32e+06 B21(12) - 4.32e+06 B69(2) + C89(14)
   - C92(13) >= -1.295856e+07
 c158: - 4.32e+06 B18(14) - 4.32e+06 B21(12) + 4.32e+06 B69(2) - C89(14)
   + C92(13) >= -8.63712e+06
 c159: - 4.32e+06 B18(14) - 4.32e+06 B23(11) - 4.32e+06 B70(2) + C89(14)
   - C94(12) >= -1.295856e+07
 c160: - 4.32e+06 B18(14) - 4.32e+06 B23(11) + 4.32e+06 B70(2) - C89(14)
   + C94(12) >= -8.63712e+06
 c161: C71(12) >= 0
 c162: C72(13) >= 0
 c163: C73(13) >= 0
 c164: C74(15) >= 0
 c165: C75(8) >= 0
 c166: C76(12) >= 0
 c167: C77(15) >= 0
 c168: C78(13) >= 0
 c169: C79(9) >= 0
 c170: C80(12) >= 0
 c171: - 2880 B10(13) + C81(12) >= 0
 c172: - 2880 B11(9) + C82(9) >= 0
 c173: - 2880 B12(13) + C83(13) >= 0
 c174: - 2880 B13(13) + C84(13) >= 0
 c175: - 2880 B14(14) + C85(14) >= 0
 c176: - 1440 B15(13) + C86(12) >= 0
 c177: - 1440 B16(13) + C87(13) >= 0
 c178: - 1440 B17(13) + C88(13) >= 0
 c179: - 1440 B18(14) + C89(14) >= 0
 c180: C90(12) >= 0
 c181: C91(13) >= 0
 c182: C92(13) >= 0
 c183: C93(13) >= 0
 c184: C94(12) >= 0
 c185: - 1440 B0(12) - 2880 B1(12) - 2880 B2(12) - 1440 B3(14) - 1440 B4(7)
   - 1440 B5(12) - 1440 B6(14) - 1440 B7(12) - 1440 B8(8) - 1440 B9(11)
   - 1440 B10(13) - 2880 B11(9) - 4320 B12(13) - 1440 B13(13)
   - 1440 B14(14) - 1440 B15(13) - 2880 B16(13) - 2880 B17(13)
   - 2880 B18(14) - 2880 B19(12) - 1440 B20(12) - 1440 B21(12)
   - 1440 B22(12) - 1440 B23(11) - C71(12) - C72(13) - C73(13) - C74(15)
   - C75(8) - C76(12) - C77(15) - C78(13) - C79(9) - C80(12) - C81(12)
   - C82(9) - C83(13) - C84(13) - C85(14) - C86(12) - C87(13) - C88(13)
   - C89(14) - C90(12) - C91(13) - C92(13) - C93(13) - C94(12) + C95(1)
   = 0
Bounds
Binaries
 B0(12) B1(12) B2(12) B3(14) B4(7) B5(12) B6(14) B7(12) B8(8) B9(11)
 B10(13) B11(9) B12(13) B13(13) B14(14) B15(13) B16(13) B17(13) B18(14)
 B19(12) B20(12) B21(12) B22(12) B23(11) B24(2) B25(2) B26(2) B27(2) B28(2)
 B29(2) B30(2) B31(2) B32(2) B33(2) B34(2) B35(2) B36(2) B37(2) B38(2)
 B39(2) B40(2) B41(2) B42(2) B43(2) B44(2) B45(2) B46(2) B47(2) B48(2)
 B49(2) B50(2) B51(2) B52(2) B53(2) B54(2) B55(2) B56(2) B57(2) B58(2)
 B59(2) B60(2) B61(2) B62(2) B63(2) B64(2) B65(2) B66(2) B67(2) B68(2)
 B69(2) B70(2)
End
